10
2147483647 42 85 67 43 2 95 53 12 36 
42 2147483647 6 75 55 77 21 2 31 35 
85 6 2147483647 55 42 1 71 54 21 34 
67 75 55 2147483647 49 81 70 89 71 12 
43 55 42 49 2147483647 14 98 55 50 65 
2 77 1 81 14 2147483647 56 57 79 43 
95 21 71 70 98 56 2147483647 45 57 73 
53 2 54 89 55 57 45 2147483647 7 28 
12 31 21 71 50 79 57 7 2147483647 52 
36 35 34 12 65 43 73 28 52 2147483647 
